
50
16421

329 429
984 1084
960 1060
919 1019
790 890
876 976
1 101
627 727
248 348
731 831
433 533
561 661
543 643
577 677
828 928
982 1082
346 446
807 907
890 990
393 493
124 224
498 598
765 865
525 625
185 285
706 806
325 425
887 987
169 269
594 694
386 486
985 1085
139 239
881 981
418 518
372 472
209 309
495 595
930 1030
1000 1100
940 1040
612 712
237 337
508 608
650 750
296 396
987 1087
85 185
235 335
204 304
